
Gurobi 12.0.2 (win64) logging started Fri Jun  6 10:10:37 2025

Set parameter LogFile to value "C:\Ioana\_uni\honours\slp\algorithm\Main_files\results\others\prox_tubules_new\Task_024_Sample004_irr_gurobi.log"
Gurobi Optimizer version 12.0.2 build v12.0.2rc0 (win64 - Windows 11.0 (26100.2))

CPU model: Intel(R) Core(TM) Ultra 5 125H, instruction set [SSE2|AVX|AVX2]
Thread count: 14 physical cores, 18 logical processors, using up to 18 threads

Non-default parameters:
TimeLimit  2200

Optimize a model with 47658 rows, 34803 columns and 147850 nonzeros
Model fingerprint: 0xacad0d1d
Variable types: 17409 continuous, 17394 integer (17394 binary)
Coefficient statistics:
  Matrix range     [1e-04, 8e+04]
  Objective range  [1e-04, 3e+00]
  Bounds range     [1e+00, 1e+03]
  RHS range        [1e+00, 1e+00]
Presolve removed 31249 rows and 21844 columns
Presolve time: 0.34s
Presolved: 16409 rows, 12959 columns, 54593 nonzeros
Variable types: 6412 continuous, 6547 integer (6547 binary)
Found heuristic solution: objective 17.2755751

Root relaxation: objective 3.663552e-03, 2125 iterations, 0.15 seconds (0.28 work units)

    Nodes    |    Current Node    |     Objective Bounds      |     Work
 Expl Unexpl |  Obj  Depth IntInf | Incumbent    BestBd   Gap | It/Node Time

     0     0    0.00366    0    9   17.27558    0.00366   100%     -    0s
H    0     0                       1.9102188    0.00366   100%     -    0s
     0     0    0.12579    0   16    1.91022    0.12579  93.4%     -    0s
     0     0    1.01203    0    6    1.91022    1.01203  47.0%     -    0s
     0     0    1.89336    0    7    1.91022    1.89336  0.88%     -    1s
     0     0    1.89909    0    7    1.91022    1.89909  0.58%     -    1s

Explored 1 nodes (3677 simplex iterations) in 1.14 seconds (1.35 work units)
Thread count was 18 (of 18 available processors)

Solution count 2: 1.91022 17.2756 

Optimal solution found (tolerance 1.00e-04)
Best objective 1.910218808221e+00, best bound 1.910218808221e+00, gap 0.0000%
